50, 2476626
100029, 925
100030, 949
100078, 893
100055, 84
100026, 593
100010, 424
100079, 531
100071, 131
100083, 192
100024, 445
100055, 222
100092, 456
100059, 25
100095, 86
100016, 711
100098, 422
100005, 513
100042, 735
100002, 359
100081, 58
100069, 784
100098, 590
100081, 658
100095, 621
100054, 971
100099, 363
100075, 760
100034, 369
100098, 573
100038, 661
100019, 315
100007, 86
100047, 475
100019, 718
100094, 591
100095, 448
100021, 643
100010, 183
100053, 179
100017, 324
100054, 816
100082, 196
100025, 115
100042, 99
100090, 39
100044, 276
100034, 573
100090, 821
100082, 331
100090, 370
